NAME: ACTUAL_TOURS/amz1919
TYPE: TOUR
COMMENT: RouteID_cc06f70f-56e4-4289-bc61-ed67eaad3dda
DIMENSION: 88
TOUR_SECTION
53
24
84
57
68
11
14
72
5
26
22
79
34
3
18
61
71
81
40
47
27
28
64
29
77
42
58
45
12
43
25
1
20
6
4
82
51
65
19
74
75
32
85
46
70
62
60
17
73
7
37
87
88
21
13
23
35
52
31
8
41
55
16
83
78
63
67
10
38
30
15
50
2
39
76
44
59
9
48
80
54
49
69
86
33
66
36
56
-1
EOF
